
  32    4
  10   10   10   10

   0   0   0   0   0   1 2 
   8  10  10  10  10   3 5 4 3 
   6  10  10  10  10   3 10 7 6 
   1  10  10  10  10   2 10 6 
   8  10  10  10  10   1 6 
   1  10  10  10  10   2 13 8 
   4  10  10  10  10   2 13 8 
   8  10  10  10  10   1 9 
   7  10  10  10  10   2 12 11 
   3  10  10  10  10   2 13 11 
   1  10  10  10  10   2 16 14 
   5  10  10  10  10   2 16 14 
   7  10  10  10  10   2 16 14 
   5  10  10  10  10   1 15 
   9  10  10  10  10   3 20 19 18 
   6  10  10  10  10   1 17 
   9  10  10  10  10   1 18 
   8  10  10  10  10   2 23 21 
   3  10  10  10  10   2 23 21 
   3  10  10  10  10   3 27 24 23 
   9  10  10  10  10   1 22 
   2  10  10  10  10   3 27 25 24 
  10  10  10  10  10   2 26 25 
   7  10  10  10  10   2 29 26 
   9  10  10  10  10   2 30 29 
   6  10  10  10  10   1 28 
   2  10  10  10  10   1 28 
  10  10  10  10  10   1 31 
   6  10  10  10  10   1 31 
   1  10  10  10  10   1 31 
   4  10  10  10  10   1 32
   0   0   0   0   0   0 
